c random clauses
p cnf 16 32
-16 -15 -14 -10 -1 4 9 12 0
-16 -14 -11 -9 -6 -4 -1 7 0
-16 -14 -11 -9 -4 -2 3 13 0
-16 -14 -6 1 3 10 12 15 0
-16 -14 -5 6 7 8 12 13 0
-16 -11 -8 -3 -1 2 4 6 0
-16 -11 -2 3 4 8 12 15 0
-16 -10 -9 -8 6 11 13 14 0
-15 -14 -13 -12 -6 1 2 11 0
-15 -14 -9 -6 -5 -3 -2 8 0
-15 -14 -6 -4 -3 2 8 16 0
-15 -13 -8 -5 2 4 6 7 0
-15 -7 -6 2 8 13 14 16 0
-14 -13 -8 -5 -3 1 11 12 0
-14 -11 -7 -4 -3 13 15 16 0
-14 -4 -3 -2 6 9 10 15 0
-13 -11 -8 -7 -6 -2 -1 10 0
-13 -11 2 4 5 9 10 15 0
-13 -8 -6 -3 4 5 14 15 0
-13 -8 -4 -3 -1 2 5 9 0
-12 -10 -9 -6 -4 5 8 15 0
-12 -10 -5 -3 6 9 14 15 0
-12 -9 -5 -2 6 7 8 16 0
-11 -10 -8 -5 1 3 7 9 0
-11 -10 -8 -3 -1 2 6 15 0
-11 -9 -4 2 6 7 13 14 0
-10 -6 -4 -1 2 12 13 14 0
-10 -4 -3 -1 6 7 13 16 0
-10 -3 1 2 5 7 9 13 0
-7 -4 -3 5 6 8 12 14 0
-6 -4 1 5 7 8 10 13 0
-5 1 6 7 8 10 13 16 0
